
Gurobi 8.1.1 (win64) logging started 11/24/19 12:05:39

Changed value of parameter LogFile to logs/miss/feas/miss-07-30-1.log
   Prev: gurobi.log  Default: 
Changed value of parameter LogToConsole to 0
   Prev: 1  Min: 0  Max: 1  Default: 1
Changed value of parameter TimeLimit to 3600.0
   Prev: 1e+100  Min: 0.0  Max: 1e+100  Default: 1e+100
Optimize a model with 1664 rows, 781 columns and 6270 nonzeros
Variable types: 0 continuous, 781 integer (770 binary)
Coefficient statistics:
  Matrix range     [1e+00, 5e+02]
  Objective range  [1e+00, 1e+00]
  Bounds range     [1e+00, 1e+00]
  RHS range        [1e+00, 5e+02]
Presolve time: 0.01s
Presolved: 1664 rows, 781 columns, 6270 nonzeros
Variable types: 0 continuous, 781 integer (770 binary)

Root relaxation: objective 5.500000e+01, 161 iterations, 0.00 seconds

    Nodes    |    Current Node    |     Objective Bounds      |     Work
 Expl Unexpl |  Obj  Depth IntInf | Incumbent    BestBd   Gap | It/Node Time

     0     0   55.00000    0  103          -   55.00000      -     -    0s
     0     0   55.00000    0  151          -   55.00000      -     -    0s
     0     0   55.00000    0  110          -   55.00000      -     -    0s
     0     0   55.00000    0  105          -   55.00000      -     -    0s
     0     2   55.00000    0  105          -   55.00000      -     -    0s
  1166  1039   70.17152  128  119          -   70.17152      -   3.7    5s
  1349  1161   73.62801   38  254          -   73.62801      -   3.2   10s
  1560  1302   79.97648   16  255          -   79.97648      -   2.7   15s
  1741  1424   84.80719   66  172          -   84.80719      -  66.3   20s
  1875  1515  158.00000  196  172          -   86.45845      -  69.1   25s
* 3303  1133              94     204.0000000  101.02049  50.5%  48.4   26s
* 3306  1058              95     202.0000000  101.02049  50.0%  48.4   26s
 10296  4504  193.00000  177  105  202.00000  120.71929  40.2%  22.9   30s
H10401  4343                     180.0000000  120.71929  32.9%  22.7   33s
 10441  4370  151.05840  179   93  180.00000  120.71929  32.9%  22.6   35s
 10542  4437  140.00000  219   73  180.00000  120.71929  32.9%  22.4   40s
*10689  4204              76     178.0000000  133.00000  25.3%  26.7   40s
*11183  3940              93     174.0000000  134.00000  23.0%  26.1   41s
*11323  3679              92     171.0000000  137.00000  19.9%  26.0   42s
*11327  3473              92     167.0000000  137.00000  18.0%  26.0   42s

Cutting planes:
  Gomory: 1
  Implied bound: 28
  MIR: 8
  Flow cover: 79
  Zero half: 6

Explored 11835 nodes (310473 simplex iterations) in 42.53 seconds
Thread count was 4 (of 4 available processors)

Solution count 7: 167 171 174 ... 204

Optimal solution found (tolerance 1.00e-04)
Best objective 1.670000000000e+02, best bound 1.670000000000e+02, gap 0.0000%

Gurobi 8.1.1 (win64) logging started 11/24/19 12:06:22

Changed value of parameter LogFile to logs/miss/feas/miss-07-30-1.log
   Prev: gurobi.log  Default: 
Changed value of parameter LogToConsole to 0
   Prev: 1  Min: 0  Max: 1  Default: 1
Changed value of parameter TimeLimit to 3600.0
   Prev: 1e+100  Min: 0.0  Max: 1e+100  Default: 1e+100
Optimize a model with 1094 rows, 513 columns and 4104 nonzeros
Variable types: 0 continuous, 513 integer (504 binary)
Coefficient statistics:
  Matrix range     [1e+00, 5e+02]
  Objective range  [1e+00, 1e+00]
  Bounds range     [1e+00, 1e+00]
  RHS range        [1e+00, 5e+02]
Presolve time: 0.01s
Presolved: 1094 rows, 513 columns, 4104 nonzeros
Variable types: 0 continuous, 513 integer (504 binary)

Root relaxation: objective 3.600000e+01, 173 iterations, 0.00 seconds

    Nodes    |    Current Node    |     Objective Bounds      |     Work
 Expl Unexpl |  Obj  Depth IntInf | Incumbent    BestBd   Gap | It/Node Time

     0     0   36.00000    0  132          -   36.00000      -     -    0s
     0     0   37.82732    0  160          -   37.82732      -     -    0s
     0     0   43.95646    0  115          -   43.95646      -     -    0s
     0     0   43.96671    0  114          -   43.96671      -     -    0s
     0     0   43.96671    0  115          -   43.96671      -     -    0s
     0     0   44.41576    0   84          -   44.41576      -     -    0s
     0     0   44.82993    0  114          -   44.82993      -     -    0s
     0     0   45.16462    0  118          -   45.16462      -     -    0s
     0     0   45.17624    0  120          -   45.17624      -     -    0s
     0     0   45.17624    0  122          -   45.17624      -     -    0s
     0     0   45.30361    0   70          -   45.30361      -     -    0s
     0     0   45.31681    0  136          -   45.31681      -     -    0s
     0     0   45.32342    0  143          -   45.32342      -     -    0s
     0     0   45.33004    0  144          -   45.33004      -     -    0s
     0     0   45.33004    0  145          -   45.33004      -     -    0s
     0     0   45.35529    0  106          -   45.35529      -     -    0s
     0     0   45.58427    0  111          -   45.58427      -     -    0s
     0     0   45.62059    0  108          -   45.62059      -     -    0s
     0     0   45.62581    0  111          -   45.62581      -     -    0s
     0     0   45.62581    0  111          -   45.62581      -     -    0s
     0     0   45.63576    0  107          -   45.63576      -     -    0s
     0     0   45.64420    0  110          -   45.64420      -     -    0s
     0     0   45.64420    0  114          -   45.64420      -     -    0s
     0     0   46.33422    0  110          -   46.33422      -     -    0s
     0     0   46.35126    0  106          -   46.35126      -     -    0s
     0     0   46.37465    0   99          -   46.37465      -     -    0s
     0     0   46.44589    0  104          -   46.44589      -     -    0s
     0     0   46.44589    0  103          -   46.44589      -     -    0s
     0     0   46.59034    0  137          -   46.59034      -     -    0s
     0     0   46.65715    0  130          -   46.65715      -     -    0s
     0     0   46.65715    0  134          -   46.65715      -     -    0s
     0     0   46.87715    0  121          -   46.87715      -     -    0s
     0     0   46.87715    0  125          -   46.87715      -     -    0s
     0     0   46.93148    0  128          -   46.93148      -     -    0s
     0     0   46.93148    0  103          -   46.93148      -     -    0s
     0     2   46.93148    0   95          -   46.93148      -     -    0s
H15423  4423                     193.0000000  101.00000  47.7%   4.8    3s
*17459  5016              68     191.0000000  106.00000  44.5%   5.2    4s
 20646  6760  165.00000   36   27  191.00000  111.00000  41.9%   5.5    5s
 20911  6693  158.00000  135   44  191.00000  112.00000  41.4%   5.8   10s
 20934  6708  128.00000  104  101  191.00000  112.00000  41.4%   5.8   15s
 20951  6720  123.00000  171  125  191.00000  112.00000  41.4%   5.7   20s
 20988  6744  162.00000  141  123  191.00000  112.00000  41.4%   5.7   25s
 21033  6774  133.00000  134  139  191.00000  114.59185  40.0%   5.7   30s
 21058  6791  126.00000   69  143  191.00000  117.00066  38.7%   5.7   35s
 21078  6804  118.17919   82  149  191.00000  118.17919  38.1%   5.7   40s
H21092  6470                     167.0000000  118.86183  28.8%   5.7   43s
 21097  6473  163.00000   68  162  167.00000  119.06566  28.7%   5.7   45s
 21118  6487  138.00000   81  145  167.00000  120.04862  28.1%   5.7   50s
 21140  6502  150.00000   34  150  167.00000  121.35399  27.3%   5.7   55s
 21159  6514  167.00000   81  130  167.00000  122.14584  26.9%   5.7   60s
 21177  6526  150.00000  138  115  167.00000  123.17327  26.2%   5.7   65s
H21206  6219                     165.0000000  125.02657  24.2%   7.6   67s
H21206  5907                     162.0000000  125.02657  22.8%   7.6   67s
 21229  5922  128.00000  166   83  162.00000  126.05612  22.2%   7.6   70s
 21280  5956  162.00000  159  123  162.00000  130.13269  19.7%   7.6   75s
 21317  5981  135.00000   83  112  162.00000  131.51221  18.8%   7.6   80s
 21354  6005  156.00000   99  112  162.00000  133.36117  17.7%   7.6   85s
 21391  6030  134.74058  100  124  162.00000  134.74058  16.8%   7.6   90s

Cutting planes:
  Implied bound: 9
  MIR: 44
  Flow cover: 133
  Zero half: 4

Explored 21621 nodes (211351 simplex iterations) in 94.99 seconds
Thread count was 4 (of 4 available processors)

Solution count 5: 162 165 167 ... 193

Optimal solution found (tolerance 1.00e-04)
Best objective 1.620000000000e+02, best bound 1.620000000000e+02, gap 0.0000%

Gurobi 8.1.1 (win64) logging started 11/24/19 12:07:57

Changed value of parameter LogFile to logs/miss/feas/miss-07-30-1.log
   Prev: gurobi.log  Default: 
Changed value of parameter LogToConsole to 0
   Prev: 1  Min: 0  Max: 1  Default: 1
Changed value of parameter TimeLimit to 3600.0
   Prev: 1e+100  Min: 0.0  Max: 1e+100  Default: 1e+100
Optimize a model with 854 rows, 400 columns and 3192 nonzeros
Variable types: 0 continuous, 400 integer (392 binary)
Coefficient statistics:
  Matrix range     [1e+00, 5e+02]
  Objective range  [1e+00, 1e+00]
  Bounds range     [1e+00, 1e+00]
  RHS range        [1e+00, 5e+02]
Presolve time: 0.01s
Presolved: 854 rows, 400 columns, 3192 nonzeros
Variable types: 0 continuous, 400 integer (392 binary)

Root relaxation: objective 2.800000e+01, 181 iterations, 0.00 seconds

    Nodes    |    Current Node    |     Objective Bounds      |     Work
 Expl Unexpl |  Obj  Depth IntInf | Incumbent    BestBd   Gap | It/Node Time

     0     0   28.00000    0  161          -   28.00000      -     -    0s
     0     0   34.70817    0  104          -   34.70817      -     -    0s
     0     0   38.40888    0   80          -   38.40888      -     -    0s
     0     0   40.54935    0   82          -   40.54935      -     -    0s
     0     0   40.54935    0   83          -   40.54935      -     -    0s
     0     0   40.56831    0   78          -   40.56831      -     -    0s
     0     0   40.56831    0   77          -   40.56831      -     -    0s
     0     2   40.56831    0   77          -   40.56831      -     -    0s
 20547 14733  538.00000  158   28          -   99.00000      -   5.9    5s
H37784 11880                     258.0000000  114.00000  55.8%   5.6    7s
H37823 11492                     250.0000000  114.00000  54.4%   5.6    7s
 41241 12904  138.00000   59   67  250.00000  116.00000  53.6%   5.8   10s
 41498 12970  116.00000   45   60  250.00000  116.00000  53.6%   6.6   15s
 50436 15027 infeasible   88       250.00000  116.00000  53.6%   8.1   20s
H61081 13052                     207.0000000  119.00000  42.5%   9.1   24s
 61939 12867  154.69620  110   27  207.00000  121.00000  41.5%   9.1   25s
*66923 11256              80     205.0000000  131.00000  36.1%   9.5   27s
 71893  9850 infeasible   86       205.00000  137.00000  33.2%   9.9   30s
*81514  9534              86     203.0000000  146.00000  28.1%  10.7   34s
 81707  9634 infeasible   89       203.00000  146.96733  27.6%  10.7   35s
*89586  7087              92     190.0000000  154.00000  18.9%  11.1   39s
 90096  6936 infeasible  145       190.00000  155.00000  18.4%  11.2   40s
*92105     0             131     161.0000000  160.89194  0.07%  11.2   41s

Cutting planes:
  Gomory: 15
  Implied bound: 65
  MIR: 103
  Flow cover: 294
  Inf proof: 1
  Zero half: 2

Explored 92182 nodes (1044907 simplex iterations) in 41.28 seconds
Thread count was 4 (of 4 available processors)

Solution count 7: 161 190 203 ... 258

Optimal solution found (tolerance 1.00e-04)
Best objective 1.610000000000e+02, best bound 1.610000000000e+02, gap 0.0000%

Gurobi 8.1.1 (win64) logging started 11/24/19 12:08:38

Changed value of parameter LogFile to logs/miss/feas/miss-07-30-1.log
   Prev: gurobi.log  Default: 
Changed value of parameter LogToConsole to 0
   Prev: 1  Min: 0  Max: 1  Default: 1
Changed value of parameter TimeLimit to 3600.0
   Prev: 1e+100  Min: 0.0  Max: 1e+100  Default: 1e+100
Optimize a model with 644 rows, 301 columns and 2394 nonzeros
Variable types: 0 continuous, 301 integer (294 binary)
Coefficient statistics:
  Matrix range     [1e+00, 5e+02]
  Objective range  [1e+00, 1e+00]
  Bounds range     [1e+00, 1e+00]
  RHS range        [1e+00, 5e+02]
Presolve time: 0.01s
Presolved: 644 rows, 301 columns, 2394 nonzeros
Variable types: 0 continuous, 301 integer (294 binary)

Root relaxation: objective 2.283333e+01, 230 iterations, 0.00 seconds

    Nodes    |    Current Node    |     Objective Bounds      |     Work
 Expl Unexpl |  Obj  Depth IntInf | Incumbent    BestBd   Gap | It/Node Time

     0     0   22.83333    0  155          -   22.83333      -     -    0s
     0     0   32.60614    0  101          -   32.60614      -     -    0s
     0     0   32.74845    0  100          -   32.74845      -     -    0s
     0     0   38.49378    0   97          -   38.49378      -     -    0s
     0     0   38.59706    0   98          -   38.59706      -     -    0s
     0     0   38.59706    0   99          -   38.59706      -     -    0s
     0     0   38.83241    0   80          -   38.83241      -     -    0s
     0     0   38.85286    0   76          -   38.85286      -     -    0s
     0     0   39.29055    0   85          -   39.29055      -     -    0s
     0     0   39.45926    0  109          -   39.45926      -     -    0s
     0     0   40.41489    0  122          -   40.41489      -     -    0s
     0     0   40.63305    0  152          -   40.63305      -     -    0s
     0     0   41.77288    0  153          -   41.77288      -     -    0s
     0     0   41.77288    0  154          -   41.77288      -     -    0s
     0     0   42.33144    0   92          -   42.33144      -     -    0s
     0     0   42.34405    0   98          -   42.34405      -     -    0s
     0     0   42.35424    0  100          -   42.35424      -     -    0s
     0     0   42.59442    0   69          -   42.59442      -     -    0s
     0     0   42.60766    0  128          -   42.60766      -     -    0s
     0     0   42.64538    0   74          -   42.64538      -     -    0s
     0     0   42.64538    0   66          -   42.64538      -     -    0s
     0     2   42.64538    0   66          -   42.64538      -     -    0s
 20474 11588  387.00000  124   21          -  111.00000      -  10.5    6s
 45541 23820 infeasible   59               -  134.00000      -   9.7   10s
 89663 45874  316.00000   52   27          -  155.00000      -   8.5   15s
 137208 67839 infeasible   50               -  170.00000      -   7.7   20s
H144336 20335                     223.0000000  171.00000  23.3%   7.7   20s
H144684 17509                     216.0000000  171.51920  20.6%   7.7   20s
 151727 11539 infeasible   46       216.00000  186.03301  13.9%   8.0   25s

Cutting planes:
  Gomory: 49
  MIR: 64
  StrongCG: 1
  Flow cover: 296
  Inf proof: 5
  Zero half: 22

Explored 164215 nodes (1333556 simplex iterations) in 29.35 seconds
Thread count was 4 (of 4 available processors)

Solution count 2: 216 223 

Optimal solution found (tolerance 1.00e-04)
Best objective 2.160000000000e+02, best bound 2.160000000000e+02, gap 0.0000%
